;; sat

(declare-const x1 sl.list.loc)
(declare-const x2 sl.list.loc)
(declare-const x3 sl.list.loc)
(declare-const x4 sl.list.loc)
(declare-const x5 sl.list.loc)
(declare-const x6 sl.list.loc)
(declare-const x7 sl.list.loc)
(declare-const x8 sl.list.loc)
(declare-const x9 sl.list.loc)
(declare-const x10 sl.list.loc)
(declare-const x11 sl.list.loc)
(declare-const x12 sl.list.loc)
(declare-const x13 sl.list.loc)
(declare-const x15 sl.list.loc)

(assert (sl.sepcon (sl.sepcon (sl.sepcon (sl.sepcon (sl.sepcon (sl.sepcon (sl.sepcon (sl.sepcon (sl.sepcon (sl.sepcon (sl.sepcon (sl.sepcon (sl.list.eq sl.list.null sl.list.null)
 (sl.list.neq x6 x12)
)
 (sl.list.neq x3 x6)
)
 (sl.list.neq x3 x12)
)
 (sl.list.neq x9 x15)
)
 (sl.list.neq x12 x15)
)
 (sl.list.neq x8 x11)
)
 (sl.list.neq x1 x7)
)
 (sl.list.neq x1 x5)
)
 (sl.list.neq x4 x9)
)
 (sl.list.neq x10 x11)
)
 (sl.list.neq x10 x15)
)
 (sl.sepcon (sl.sepcon (sl.sepcon (sl.sepcon (sl.sepcon (sl.sepcon (sl.sepcon (sl.sepcon (sl.sepcon (sl.sepcon (sl.list.seg x10 x1)
 (sl.list.seg x10 x11)
)
 (sl.list.seg x13 x2)
)
 (sl.list.seg x1 x10)
)
 (sl.list.seg x4 x1)
)
 (sl.list.seg x15 x4)
)
 (sl.list.seg x12 x5)
)
 (sl.list.seg x12 x13)
)
 (sl.list.seg x7 x4)
)
 (sl.list.seg x6 x10)
)
 (sl.list.seg x6 x1)
)
)
)

